\Generated by Cardinal Operations

Maximize
   28 x_0_0 + 28 x_0_1 + 28 x_0_2 + 28 x_0_3 + 28 x_0_4 + 28 x_0_5 
   + 28 x_0_6 + 28 x_0_7 + 28 x_0_8 + 28 x_0_9 + 69 x_1_0 + 69 x_1_1 
   + 69 x_1_2 + 69 x_1_3 + 69 x_1_4 + 69 x_1_5 + 69 x_1_6 + 69 x_1_7 
   + 69 x_1_8 + 69 x_1_9 + 20 x_2_0 + 20 x_2_1 + 20 x_2_2 + 20 x_2_3 
   + 20 x_2_4 + 20 x_2_5 + 20 x_2_6 + 20 x_2_7 + 20 x_2_8 + 20 x_2_9 
   + 62 x_3_0 + 62 x_3_1 + 62 x_3_2 + 62 x_3_3 + 62 x_3_4 + 62 x_3_5 
   + 62 x_3_6 + 62 x_3_7 + 62 x_3_8 + 62 x_3_9 + 58 x_4_0 + 58 x_4_1 
   + 58 x_4_2 + 58 x_4_3 + 58 x_4_4 + 58 x_4_5 + 58 x_4_6 + 58 x_4_7 
   + 58 x_4_8 + 58 x_4_9 + 11 x_5_0 + 11 x_5_1 + 11 x_5_2 + 11 x_5_3 
   + 11 x_5_4 + 11 x_5_5 + 11 x_5_6 + 11 x_5_7 + 11 x_5_8 + 11 x_5_9 
   + 73 x_6_0 + 73 x_6_1 + 73 x_6_2 + 73 x_6_3 + 73 x_6_4 + 73 x_6_5 
   + 73 x_6_6 + 73 x_6_7 + 73 x_6_8 + 73 x_6_9 + 43 x_7_0 + 43 x_7_1 
   + 43 x_7_2 + 43 x_7_3 + 43 x_7_4 + 43 x_7_5 + 43 x_7_6 + 43 x_7_7 
   + 43 x_7_8 + 43 x_7_9 + 28 x_8_0 + 28 x_8_1 + 28 x_8_2 + 28 x_8_3 
   + 28 x_8_4 + 28 x_8_5 + 28 x_8_6 + 28 x_8_7 + 28 x_8_8 + 28 x_8_9 
   + 57 x_9_0 + 57 x_9_1 + 57 x_9_2 + 57 x_9_3 + 57 x_9_4 + 57 x_9_5 
   + 57 x_9_6 + 57 x_9_7 + 57 x_9_8 + 57 x_9_9 + 92 x_10_0 + 92 x_10_1 
   + 92 x_10_2 + 92 x_10_3 + 92 x_10_4 + 92 x_10_5 + 92 x_10_6 + 92 x_10_7 
   + 92 x_10_8 + 92 x_10_9 + 66 x_11_0 + 66 x_11_1 + 66 x_11_2 + 66 x_11_3 
   + 66 x_11_4 + 66 x_11_5 + 66 x_11_6 + 66 x_11_7 + 66 x_11_8 + 66 x_11_9 
   + 14 x_12_0 + 14 x_12_1 + 14 x_12_2 + 14 x_12_3 + 14 x_12_4 + 14 x_12_5 
   + 14 x_12_6 + 14 x_12_7 + 14 x_12_8 + 14 x_12_9 + 49 x_13_0 + 49 x_13_1 
   + 49 x_13_2 + 49 x_13_3 + 49 x_13_4 + 49 x_13_5 + 49 x_13_6 + 49 x_13_7 
   + 49 x_13_8 + 49 x_13_9 + 12 x_14_0 + 12 x_14_1 + 12 x_14_2 + 12 x_14_3 
   + 12 x_14_4 + 12 x_14_5 + 12 x_14_6 + 12 x_14_7 + 12 x_14_8 + 12 x_14_9 
Subject To
 capacity_constraint: 393 x_0_0 + 195 x_1_0 + 192 x_2_0 + 155 x_3_0 
   + 500 x_4_0 + 156 x_5_0 + 317 x_6_0 + 694 x_7_0 + 751 x_8_0 + 467 x_9_0 
   + 796 x_10_0 + 146 x_11_0 + 269 x_12_0 + 246 x_13_0 + 652 x_14_0 <= 1336
 393 x_0_1 + 195 x_1_1 + 192 x_2_1 + 155 x_3_1 + 500 x_4_1 + 156 x_5_1 
   + 317 x_6_1 + 694 x_7_1 + 751 x_8_1 + 467 x_9_1 + 796 x_10_1 
   + 146 x_11_1 + 269 x_12_1 + 246 x_13_1 + 652 x_14_1 <= 1754
 393 x_0_2 + 195 x_1_2 + 192 x_2_2 + 155 x_3_2 + 500 x_4_2 + 156 x_5_2 
   + 317 x_6_2 + 694 x_7_2 + 751 x_8_2 + 467 x_9_2 + 796 x_10_2 
   + 146 x_11_2 + 269 x_12_2 + 246 x_13_2 + 652 x_14_2 <= 1617
 393 x_0_3 + 195 x_1_3 + 192 x_2_3 + 155 x_3_3 + 500 x_4_3 + 156 x_5_3 
   + 317 x_6_3 + 694 x_7_3 + 751 x_8_3 + 467 x_9_3 + 796 x_10_3 
   + 146 x_11_3 + 269 x_12_3 + 246 x_13_3 + 652 x_14_3 <= 1119
 393 x_0_4 + 195 x_1_4 + 192 x_2_4 + 155 x_3_4 + 500 x_4_4 + 156 x_5_4 
   + 317 x_6_4 + 694 x_7_4 + 751 x_8_4 + 467 x_9_4 + 796 x_10_4 
   + 146 x_11_4 + 269 x_12_4 + 246 x_13_4 + 652 x_14_4 <= 1410
 393 x_0_5 + 195 x_1_5 + 192 x_2_5 + 155 x_3_5 + 500 x_4_5 + 156 x_5_5 
   + 317 x_6_5 + 694 x_7_5 + 751 x_8_5 + 467 x_9_5 + 796 x_10_5 
   + 146 x_11_5 + 269 x_12_5 + 246 x_13_5 + 652 x_14_5 <= 627
 393 x_0_6 + 195 x_1_6 + 192 x_2_6 + 155 x_3_6 + 500 x_4_6 + 156 x_5_6 
   + 317 x_6_6 + 694 x_7_6 + 751 x_8_6 + 467 x_9_6 + 796 x_10_6 
   + 146 x_11_6 + 269 x_12_6 + 246 x_13_6 + 652 x_14_6 <= 748
 393 x_0_7 + 195 x_1_7 + 192 x_2_7 + 155 x_3_7 + 500 x_4_7 + 156 x_5_7 
   + 317 x_6_7 + 694 x_7_7 + 751 x_8_7 + 467 x_9_7 + 796 x_10_7 
   + 146 x_11_7 + 269 x_12_7 + 246 x_13_7 + 652 x_14_7 <= 1540
 393 x_0_8 + 195 x_1_8 + 192 x_2_8 + 155 x_3_8 + 500 x_4_8 + 156 x_5_8 
   + 317 x_6_8 + 694 x_7_8 + 751 x_8_8 + 467 x_9_8 + 796 x_10_8 
   + 146 x_11_8 + 269 x_12_8 + 246 x_13_8 + 652 x_14_8 <= 1292
 393 x_0_9 + 195 x_1_9 + 192 x_2_9 + 155 x_3_9 + 500 x_4_9 + 156 x_5_9 
   + 317 x_6_9 + 694 x_7_9 + 751 x_8_9 + 467 x_9_9 + 796 x_10_9 
   + 146 x_11_9 + 269 x_12_9 + 246 x_13_9 + 652 x_14_9 <= 1138
Generals
 x_0_0  x_0_1  x_0_2  x_0_3  x_0_4  x_0_5  x_0_6  x_0_7  x_0_8  x_0_9  
 x_1_0  x_1_1  x_1_2  x_1_3  x_1_4  x_1_5  x_1_6  x_1_7  x_1_8  x_1_9  
 x_2_0  x_2_1  x_2_2  x_2_3  x_2_4  x_2_5  x_2_6  x_2_7  x_2_8  x_2_9  
 x_3_0  x_3_1  x_3_2  x_3_3  x_3_4  x_3_5  x_3_6  x_3_7  x_3_8  x_3_9  
 x_4_0  x_4_1  x_4_2  x_4_3  x_4_4  x_4_5  x_4_6  x_4_7  x_4_8  x_4_9  
 x_5_0  x_5_1  x_5_2  x_5_3  x_5_4  x_5_5  x_5_6  x_5_7  x_5_8  x_5_9  
 x_6_0  x_6_1  x_6_2  x_6_3  x_6_4  x_6_5  x_6_6  x_6_7  x_6_8  x_6_9  
 x_7_0  x_7_1  x_7_2  x_7_3  x_7_4  x_7_5  x_7_6  x_7_7  x_7_8  x_7_9  
 x_8_0  x_8_1  x_8_2  x_8_3  x_8_4  x_8_5  x_8_6  x_8_7  x_8_8  x_8_9  
 x_9_0  x_9_1  x_9_2  x_9_3  x_9_4  x_9_5  x_9_6  x_9_7  x_9_8  x_9_9  
 x_10_0  x_10_1  x_10_2  x_10_3  x_10_4  x_10_5  x_10_6  x_10_7  x_10_8  
 x_10_9  x_11_0  x_11_1  x_11_2  x_11_3  x_11_4  x_11_5  x_11_6  x_11_7  
 x_11_8  x_11_9  x_12_0  x_12_1  x_12_2  x_12_3  x_12_4  x_12_5  x_12_6  
 x_12_7  x_12_8  x_12_9  x_13_0  x_13_1  x_13_2  x_13_3  x_13_4  x_13_5  
 x_13_6  x_13_7  x_13_8  x_13_9  x_14_0  x_14_1  x_14_2  x_14_3  x_14_4  
 x_14_5  x_14_6  x_14_7  x_14_8  x_14_9  
END

